p cnf 363 268
c p distribution  0.875 0.125
c p distribution  0.875 0.125
c p distribution  0.875 0.125
c p distribution  0.875 0.125
c p distribution  0.875 0.125
c p distribution  0.875 0.125
c p distribution  0.875 0.125
c p distribution  0.875 0.125
c p distribution  0.875 0.125
c p distribution  0.875 0.125
c p distribution  0.875 0.125
c p distribution  0.875 0.125
c p distribution  0.875 0.125
c p distribution  0.875 0.125
c p distribution  0.875 0.125
c p distribution  0.875 0.125
c p distribution  0.875 0.125
c p distribution  0.875 0.125
c p distribution  0.875 0.125
c p distribution  0.875 0.125
c p distribution  0.875 0.125
c p distribution  0.875 0.125
c p distribution  0.875 0.125
c p distribution  0.875 0.125
c p distribution  0.875 0.125
c p distribution  0.875 0.125
c p distribution  0.875 0.125
c p distribution  0.875 0.125
c p distribution  0.875 0.125
c p distribution  0.875 0.125
c p distribution  0.875 0.125
c p distribution  0.875 0.125
c p distribution  0.875 0.125
c p distribution  0.875 0.125
c p distribution  0.875 0.125
c p distribution  0.875 0.125
c p distribution  0.875 0.125
c p distribution  0.875 0.125
c p distribution  0.875 0.125
c p distribution  0.875 0.125
c p distribution  0.875 0.125
c p distribution  0.875 0.125
c p distribution  0.875 0.125
c p distribution  0.875 0.125
c p distribution  0.875 0.125
c p distribution  0.875 0.125
c p distribution  0.875 0.125
c p distribution  0.875 0.125
c p distribution  0.875 0.125
c p distribution  0.875 0.125
c p distribution  0.875 0.125
c p distribution  0.875 0.125
c p distribution  0.875 0.125
c p distribution  0.875 0.125
c p distribution  0.875 0.125
c p distribution  0.875 0.125
c p distribution  0.875 0.125
c p distribution  0.875 0.125
c p distribution  0.875 0.125
c p distribution  0.875 0.125
c p distribution  0.875 0.125
c p distribution  0.875 0.125
c p distribution  0.875 0.125
c p distribution  0.875 0.125
c p distribution  0.875 0.125
c p distribution  0.875 0.125
c p distribution  0.875 0.125
c p distribution  0.875 0.125
c p distribution  0.875 0.125
c p distribution  0.875 0.125
c p distribution  0.875 0.125
c p distribution  0.875 0.125
c p distribution  0.875 0.125
c p distribution  0.875 0.125
c p distribution  0.875 0.125
c p distribution  0.875 0.125
c p distribution  0.875 0.125
c p distribution  0.875 0.125
c p distribution  0.875 0.125
c p distribution  0.875 0.125
c p distribution  0.875 0.125
c p distribution  0.875 0.125
c p distribution  0.875 0.125
c p distribution  0.875 0.125
c p distribution  0.875 0.125
c p distribution  0.875 0.125
c p distribution  0.875 0.125
c p distribution  0.875 0.125
c p distribution  0.875 0.125
c p distribution  0.875 0.125
c p distribution  0.875 0.125
c p distribution  0.875 0.125
c p distribution  0.875 0.125
c p distribution  0.875 0.125
c p distribution  0.875 0.125
c p distribution  0.875 0.125
c p distribution  0.875 0.125
c p distribution  0.875 0.125
c p distribution  0.875 0.125
c p distribution  0.875 0.125
c p distribution  0.875 0.125
c p distribution  0.875 0.125
c p distribution  0.875 0.125
c p distribution  0.875 0.125
c p distribution  0.875 0.125
c p distribution  0.875 0.125
c p distribution  0.875 0.125
c p distribution  0.875 0.125
c p distribution  0.875 0.125
c p distribution  0.875 0.125
c p distribution  0.875 0.125
c p distribution  0.875 0.125
c p distribution  0.875 0.125
c p distribution  0.875 0.125
c p distribution  0.875 0.125
c p distribution  0.875 0.125
c p distribution  0.875 0.125
c p distribution  0.875 0.125
c p distribution  0.875 0.125
c p distribution  0.875 0.125
c p distribution  0.875 0.125
c p distribution  0.875 0.125
c p distribution  0.875 0.125
c p distribution  0.875 0.125
c p distribution  0.875 0.125
c p distribution  0.875 0.125
c p distribution  0.875 0.125
c p distribution  0.875 0.125
c p distribution  0.875 0.125
c p distribution  0.875 0.125
c p distribution  0.875 0.125
c p distribution  0.875 0.125
c p distribution  0.875 0.125
360 0
-340 0
354 -299 -1 0
299 -354 -1 0
295 -337 -3 0
337 -295 -3 0
269 -352 -5 0
352 -269 -5 0
338 -360 -7 0
360 -338 -7 0
311 -303 -9 0
303 -311 -9 0
288 -309 -11 0
309 -288 -11 0
320 -311 -13 0
311 -320 -13 0
315 -316 -15 0
316 -315 -15 0
334 -319 -17 0
319 -334 -17 0
303 -292 -19 0
292 -303 -19 0
361 -305 -21 0
305 -361 -21 0
277 -285 -23 0
285 -277 -23 0
273 -345 -25 0
345 -273 -25 0
355 -287 -27 0
287 -355 -27 0
288 -290 -29 0
290 -288 -29 0
334 -352 -31 0
352 -334 -31 0
338 -354 -33 0
354 -338 -33 0
327 -349 -35 0
349 -327 -35 0
283 -336 -37 0
336 -283 -37 0
333 -340 -39 0
340 -333 -39 0
289 -324 -41 0
324 -289 -41 0
294 -326 -43 0
326 -294 -43 0
285 -277 -45 0
277 -285 -45 0
317 -270 -47 0
270 -317 -47 0
341 -350 -49 0
350 -341 -49 0
342 -322 -51 0
322 -342 -51 0
284 -353 -53 0
353 -284 -53 0
290 -338 -55 0
338 -290 -55 0
309 -312 -57 0
312 -309 -57 0
323 -271 -59 0
271 -323 -59 0
342 -311 -61 0
311 -342 -61 0
359 -324 -63 0
324 -359 -63 0
271 -333 -65 0
333 -271 -65 0
302 -314 -67 0
314 -302 -67 0
281 -294 -69 0
294 -281 -69 0
321 -306 -71 0
306 -321 -71 0
320 -311 -73 0
311 -320 -73 0
341 -276 -75 0
276 -341 -75 0
280 -301 -77 0
301 -280 -77 0
320 -311 -79 0
311 -320 -79 0
269 -307 -81 0
307 -269 -81 0
272 -279 -83 0
279 -272 -83 0
357 -353 -85 0
353 -357 -85 0
291 -318 -87 0
318 -291 -87 0
357 -317 -89 0
317 -357 -89 0
304 -305 -91 0
305 -304 -91 0
293 -304 -93 0
304 -293 -93 0
288 -353 -95 0
353 -288 -95 0
356 -331 -97 0
331 -356 -97 0
268 -346 -99 0
346 -268 -99 0
303 -362 -101 0
362 -303 -101 0
300 -267 -103 0
267 -300 -103 0
285 -277 -105 0
277 -285 -105 0
332 -282 -107 0
282 -332 -107 0
269 -352 -109 0
352 -269 -109 0
340 -283 -111 0
283 -340 -111 0
321 -319 -113 0
319 -321 -113 0
304 -271 -115 0
271 -304 -115 0
288 -297 -117 0
297 -288 -117 0
272 -337 -119 0
337 -272 -119 0
275 -322 -121 0
322 -275 -121 0
306 -291 -123 0
291 -306 -123 0
323 -293 -125 0
293 -323 -125 0
293 -304 -127 0
304 -293 -127 0
310 -362 -129 0
362 -310 -129 0
311 -290 -131 0
290 -311 -131 0
299 -267 -133 0
267 -299 -133 0
278 -301 -135 0
301 -278 -135 0
361 -305 -137 0
305 -361 -137 0
358 -295 -139 0
295 -358 -139 0
290 -298 -141 0
298 -290 -141 0
342 -329 -143 0
329 -342 -143 0
351 -273 -145 0
273 -351 -145 0
296 -273 -147 0
273 -296 -147 0
268 -280 -149 0
280 -268 -149 0
299 -331 -151 0
331 -299 -151 0
296 -363 -153 0
363 -296 -153 0
307 -279 -155 0
279 -307 -155 0
307 -279 -157 0
279 -307 -157 0
328 -287 -159 0
287 -328 -159 0
333 -316 -161 0
316 -333 -161 0
290 -307 -163 0
307 -290 -163 0
328 -286 -165 0
286 -328 -165 0
294 -283 -167 0
283 -294 -167 0
290 -337 -169 0
337 -290 -169 0
268 -336 -171 0
336 -268 -171 0
333 -313 -173 0
313 -333 -173 0
348 -346 -175 0
346 -348 -175 0
339 -325 -177 0
325 -339 -177 0
310 -287 -179 0
287 -310 -179 0
290 -284 -181 0
284 -290 -181 0
343 -302 -183 0
302 -343 -183 0
325 -308 -185 0
308 -325 -185 0
348 -278 -187 0
278 -348 -187 0
271 -333 -189 0
333 -271 -189 0
277 -345 -191 0
345 -277 -191 0
271 -333 -193 0
333 -271 -193 0
343 -267 -195 0
267 -343 -195 0
289 -333 -197 0
333 -289 -197 0
297 -335 -199 0
335 -297 -199 0
350 -332 -201 0
332 -350 -201 0
282 -331 -203 0
331 -282 -203 0
299 -282 -205 0
282 -299 -205 0
292 -330 -207 0
330 -292 -207 0
358 -270 -209 0
270 -358 -209 0
326 -336 -211 0
336 -326 -211 0
285 -345 -213 0
345 -285 -213 0
318 -359 -215 0
359 -318 -215 0
297 -317 -217 0
317 -297 -217 0
312 -335 -219 0
335 -312 -219 0
355 -310 -221 0
310 -355 -221 0
298 -274 -223 0
274 -298 -223 0
360 -354 -225 0
354 -360 -225 0
348 -344 -227 0
344 -348 -227 0
333 -316 -229 0
316 -333 -229 0
316 -313 -231 0
313 -316 -231 0
333 -313 -233 0
313 -333 -233 0
311 -302 -235 0
302 -311 -235 0
315 -285 -237 0
285 -315 -237 0
340 -326 -239 0
326 -340 -239 0
278 -344 -241 0
344 -278 -241 0
288 -357 -243 0
357 -288 -243 0
334 -352 -245 0
352 -334 -245 0
341 -332 -247 0
332 -341 -247 0
339 -347 -249 0
347 -339 -249 0
323 -271 -251 0
271 -323 -251 0
288 -284 -253 0
284 -288 -253 0
319 -311 -255 0
311 -319 -255 0
344 -349 -257 0
349 -344 -257 0
349 -355 -259 0
355 -349 -259 0
315 -316 -261 0
316 -315 -261 0
362 -292 -263 0
292 -362 -263 0
279 -298 -265 0
298 -279 -265 0

